Maximize
  50 x_wired_headphones + 20 x_wireless_headphones
Subject To
  c1: x_wired_headphones <= 100
  c2: x_wireless_headphones <= 170
  c3: x_wired_headphones + x_wireless_headphones <= 150
Integer
  x_wired_headphones x_wireless_headphones
End